c Standarized MaxSat Instance
c{
c "sha1sum": "7c52b269e3c86a6171d598d5c6b6cb569fb6d1f6",
c "nvars": 60,
c "ncls": 840,
c "nhards": 0,
c "nhard_len_stats":
c    { "min": 0, "max": 0, "ave": 0.00,
c      "stddev": 0.00 },
c "nsofts": 840,
c "nsoft_len_stats":
c    { "min": 2, "max": 2, "ave": 2.00,
c      "stddev": 0.00 },
c "nsoft_wts": 10,
c "soft_wt_stats":
c    { "min": 1, "max": 10, "ave": 5.61,
c      "stddev": 2.87 }
c}
c------------------------------------------------------------
c Generated after 1 tries
c Graph with 60 nodes and 420 edges, Max edges:1770
p wcnf 60 840 4713
9 1 3 0
9 -1 -3 0
4 1 7 0
4 -1 -7 0
8 1 8 0
8 -1 -8 0
8 1 11 0
8 -1 -11 0
10 1 13 0
10 -1 -13 0
2 1 19 0
2 -1 -19 0
4 1 22 0
4 -1 -22 0
8 1 30 0
8 -1 -30 0
3 1 39 0
3 -1 -39 0
6 1 41 0
6 -1 -41 0
5 1 50 0
5 -1 -50 0
7 1 55 0
7 -1 -55 0
4 1 57 0
4 -1 -57 0
6 2 6 0
6 -2 -6 0
10 2 12 0
10 -2 -12 0
10 2 17 0
10 -2 -17 0
7 2 19 0
7 -2 -19 0
8 2 25 0
8 -2 -25 0
2 2 31 0
2 -2 -31 0
7 2 33 0
7 -2 -33 0
1 2 35 0
1 -2 -35 0
3 2 38 0
3 -2 -38 0
2 2 47 0
2 -2 -47 0
9 2 50 0
9 -2 -50 0
2 2 52 0
2 -2 -52 0
5 2 58 0
5 -2 -58 0
2 2 60 0
2 -2 -60 0
2 3 6 0
2 -3 -6 0
10 3 12 0
10 -3 -12 0
3 3 13 0
3 -3 -13 0
6 3 15 0
6 -3 -15 0
9 3 24 0
9 -3 -24 0
7 3 26 0
7 -3 -26 0
3 3 30 0
3 -3 -30 0
7 3 36 0
7 -3 -36 0
6 3 37 0
6 -3 -37 0
5 3 39 0
5 -3 -39 0
10 3 40 0
10 -3 -40 0
3 3 44 0
3 -3 -44 0
8 3 55 0
8 -3 -55 0
6 3 59 0
6 -3 -59 0
8 4 11 0
8 -4 -11 0
5 4 12 0
5 -4 -12 0
9 4 19 0
9 -4 -19 0
3 4 21 0
3 -4 -21 0
4 4 24 0
4 -4 -24 0
9 4 26 0
9 -4 -26 0
10 4 28 0
10 -4 -28 0
1 4 29 0
1 -4 -29 0
10 4 32 0
10 -4 -32 0
6 4 36 0
6 -4 -36 0
1 4 40 0
1 -4 -40 0
2 4 42 0
2 -4 -42 0
7 4 43 0
7 -4 -43 0
9 4 45 0
9 -4 -45 0
4 4 48 0
4 -4 -48 0
1 4 50 0
1 -4 -50 0
1 4 51 0
1 -4 -51 0
5 4 52 0
5 -4 -52 0
1 4 53 0
1 -4 -53 0
3 4 55 0
3 -4 -55 0
10 4 60 0
10 -4 -60 0
10 5 6 0
10 -5 -6 0
9 5 9 0
9 -5 -9 0
3 5 11 0
3 -5 -11 0
6 5 15 0
6 -5 -15 0
4 5 18 0
4 -5 -18 0
8 5 20 0
8 -5 -20 0
6 5 26 0
6 -5 -26 0
7 5 31 0
7 -5 -31 0
6 5 33 0
6 -5 -33 0
1 5 34 0
1 -5 -34 0
5 5 41 0
5 -5 -41 0
10 5 52 0
10 -5 -52 0
10 5 56 0
10 -5 -56 0
8 6 7 0
8 -6 -7 0
3 6 9 0
3 -6 -9 0
8 6 12 0
8 -6 -12 0
7 6 19 0
7 -6 -19 0
4 6 33 0
4 -6 -33 0
7 6 36 0
7 -6 -36 0
2 6 43 0
2 -6 -43 0
5 6 47 0
5 -6 -47 0
9 6 49 0
9 -6 -49 0
9 6 51 0
9 -6 -51 0
4 6 54 0
4 -6 -54 0
3 6 59 0
3 -6 -59 0
9 7 18 0
9 -7 -18 0
4 7 19 0
4 -7 -19 0
7 7 28 0
7 -7 -28 0
10 7 31 0
10 -7 -31 0
6 7 32 0
6 -7 -32 0
7 7 35 0
7 -7 -35 0
9 7 45 0
9 -7 -45 0
5 7 48 0
5 -7 -48 0
10 7 50 0
10 -7 -50 0
4 7 53 0
4 -7 -53 0
9 7 59 0
9 -7 -59 0
7 7 60 0
7 -7 -60 0
10 8 10 0
10 -8 -10 0
5 8 17 0
5 -8 -17 0
3 8 21 0
3 -8 -21 0
10 8 22 0
10 -8 -22 0
10 8 23 0
10 -8 -23 0
2 8 27 0
2 -8 -27 0
9 8 29 0
9 -8 -29 0
7 8 30 0
7 -8 -30 0
5 8 39 0
5 -8 -39 0
7 8 40 0
7 -8 -40 0
3 8 44 0
3 -8 -44 0
8 8 48 0
8 -8 -48 0
4 8 53 0
4 -8 -53 0
5 8 55 0
5 -8 -55 0
3 9 14 0
3 -9 -14 0
2 9 23 0
2 -9 -23 0
3 9 36 0
3 -9 -36 0
6 9 39 0
6 -9 -39 0
5 9 45 0
5 -9 -45 0
2 9 47 0
2 -9 -47 0
10 9 54 0
10 -9 -54 0
2 10 11 0
2 -10 -11 0
2 10 19 0
2 -10 -19 0
5 10 29 0
5 -10 -29 0
8 10 32 0
8 -10 -32 0
10 10 37 0
10 -10 -37 0
10 10 38 0
10 -10 -38 0
7 10 41 0
7 -10 -41 0
4 10 46 0
4 -10 -46 0
8 10 48 0
8 -10 -48 0
4 10 55 0
4 -10 -55 0
3 10 57 0
3 -10 -57 0
3 10 58 0
3 -10 -58 0
6 10 59 0
6 -10 -59 0
3 10 60 0
3 -10 -60 0
2 11 13 0
2 -11 -13 0
8 11 17 0
8 -11 -17 0
2 11 18 0
2 -11 -18 0
8 11 20 0
8 -11 -20 0
2 11 21 0
2 -11 -21 0
8 11 23 0
8 -11 -23 0
1 11 24 0
1 -11 -24 0
10 11 26 0
10 -11 -26 0
1 11 33 0
1 -11 -33 0
6 11 36 0
6 -11 -36 0
2 11 49 0
2 -11 -49 0
3 11 58 0
3 -11 -58 0
8 12 16 0
8 -12 -16 0
8 12 18 0
8 -12 -18 0
7 12 24 0
7 -12 -24 0
10 12 27 0
10 -12 -27 0
7 12 28 0
7 -12 -28 0
8 12 31 0
8 -12 -31 0
1 12 34 0
1 -12 -34 0
2 12 41 0
2 -12 -41 0
6 12 49 0
6 -12 -49 0
1 12 50 0
1 -12 -50 0
1 12 52 0
1 -12 -52 0
3 12 55 0
3 -12 -55 0
5 12 56 0
5 -12 -56 0
9 13 15 0
9 -13 -15 0
6 13 19 0
6 -13 -19 0
8 13 25 0
8 -13 -25 0
1 13 28 0
1 -13 -28 0
2 13 34 0
2 -13 -34 0
10 13 40 0
10 -13 -40 0
3 13 49 0
3 -13 -49 0
9 13 50 0
9 -13 -50 0
2 13 52 0
2 -13 -52 0
10 13 56 0
10 -13 -56 0
1 14 16 0
1 -14 -16 0
9 14 23 0
9 -14 -23 0
1 14 25 0
1 -14 -25 0
1 14 27 0
1 -14 -27 0
10 14 28 0
10 -14 -28 0
6 14 36 0
6 -14 -36 0
2 14 38 0
2 -14 -38 0
2 14 43 0
2 -14 -43 0
4 14 45 0
4 -14 -45 0
10 14 49 0
10 -14 -49 0
9 14 57 0
9 -14 -57 0
4 15 23 0
4 -15 -23 0
6 15 25 0
6 -15 -25 0
6 15 29 0
6 -15 -29 0
5 15 34 0
5 -15 -34 0
7 15 37 0
7 -15 -37 0
1 15 39 0
1 -15 -39 0
6 15 41 0
6 -15 -41 0
8 15 43 0
8 -15 -43 0
4 15 46 0
4 -15 -46 0
10 15 47 0
10 -15 -47 0
6 16 17 0
6 -16 -17 0
9 16 19 0
9 -16 -19 0
8 16 20 0
8 -16 -20 0
7 16 21 0
7 -16 -21 0
1 16 22 0
1 -16 -22 0
8 16 26 0
8 -16 -26 0
9 16 27 0
9 -16 -27 0
10 16 30 0
10 -16 -30 0
9 16 32 0
9 -16 -32 0
9 16 44 0
9 -16 -44 0
10 16 45 0
10 -16 -45 0
8 16 53 0
8 -16 -53 0
10 16 54 0
10 -16 -54 0
10 16 55 0
10 -16 -55 0
7 16 58 0
7 -16 -58 0
5 16 59 0
5 -16 -59 0
2 17 19 0
2 -17 -19 0
9 17 20 0
9 -17 -20 0
9 17 22 0
9 -17 -22 0
1 17 27 0
1 -17 -27 0
7 17 36 0
7 -17 -36 0
3 17 39 0
3 -17 -39 0
7 17 55 0
7 -17 -55 0
3 17 58 0
3 -17 -58 0
8 17 60 0
8 -17 -60 0
4 18 28 0
4 -18 -28 0
4 18 32 0
4 -18 -32 0
3 18 48 0
3 -18 -48 0
1 18 54 0
1 -18 -54 0
7 18 57 0
7 -18 -57 0
3 18 59 0
3 -18 -59 0
7 19 21 0
7 -19 -21 0
6 19 23 0
6 -19 -23 0
10 19 25 0
10 -19 -25 0
3 19 28 0
3 -19 -28 0
6 19 38 0
6 -19 -38 0
8 19 43 0
8 -19 -43 0
2 19 48 0
2 -19 -48 0
5 19 58 0
5 -19 -58 0
6 20 24 0
6 -20 -24 0
10 20 28 0
10 -20 -28 0
5 20 29 0
5 -20 -29 0
4 20 31 0
4 -20 -31 0
9 20 37 0
9 -20 -37 0
5 20 48 0
5 -20 -48 0
1 20 49 0
1 -20 -49 0
4 20 51 0
4 -20 -51 0
6 20 55 0
6 -20 -55 0
9 20 58 0
9 -20 -58 0
3 20 59 0
3 -20 -59 0
7 21 22 0
7 -21 -22 0
5 21 28 0
5 -21 -28 0
5 21 31 0
5 -21 -31 0
4 21 33 0
4 -21 -33 0
8 21 37 0
8 -21 -37 0
2 21 44 0
2 -21 -44 0
7 21 47 0
7 -21 -47 0
1 21 48 0
1 -21 -48 0
5 21 55 0
5 -21 -55 0
7 22 27 0
7 -22 -27 0
7 22 32 0
7 -22 -32 0
7 22 40 0
7 -22 -40 0
4 22 48 0
4 -22 -48 0
2 22 57 0
2 -22 -57 0
7 22 58 0
7 -22 -58 0
7 22 60 0
7 -22 -60 0
8 23 29 0
8 -23 -29 0
4 23 34 0
4 -23 -34 0
8 23 36 0
8 -23 -36 0
3 23 38 0
3 -23 -38 0
10 23 39 0
10 -23 -39 0
7 23 40 0
7 -23 -40 0
7 23 43 0
7 -23 -43 0
3 23 50 0
3 -23 -50 0
6 23 53 0
6 -23 -53 0
1 23 55 0
1 -23 -55 0
3 23 56 0
3 -23 -56 0
9 23 57 0
9 -23 -57 0
7 23 60 0
7 -23 -60 0
1 24 27 0
1 -24 -27 0
2 24 28 0
2 -24 -28 0
4 24 29 0
4 -24 -29 0
6 24 31 0
6 -24 -31 0
6 24 32 0
6 -24 -32 0
7 24 36 0
7 -24 -36 0
3 24 42 0
3 -24 -42 0
8 24 44 0
8 -24 -44 0
3 24 45 0
3 -24 -45 0
4 24 51 0
4 -24 -51 0
2 24 54 0
2 -24 -54 0
10 24 59 0
10 -24 -59 0
1 25 31 0
1 -25 -31 0
9 25 39 0
9 -25 -39 0
4 25 40 0
4 -25 -40 0
2 25 41 0
2 -25 -41 0
5 25 42 0
5 -25 -42 0
10 25 43 0
10 -25 -43 0
10 25 44 0
10 -25 -44 0
8 25 46 0
8 -25 -46 0
7 25 47 0
7 -25 -47 0
2 25 51 0
2 -25 -51 0
7 25 58 0
7 -25 -58 0
4 26 34 0
4 -26 -34 0
8 26 39 0
8 -26 -39 0
10 26 41 0
10 -26 -41 0
10 26 42 0
10 -26 -42 0
9 26 53 0
9 -26 -53 0
3 26 57 0
3 -26 -57 0
8 26 60 0
8 -26 -60 0
6 27 36 0
6 -27 -36 0
3 27 37 0
3 -27 -37 0
10 27 39 0
10 -27 -39 0
10 27 42 0
10 -27 -42 0
9 27 44 0
9 -27 -44 0
5 27 48 0
5 -27 -48 0
6 27 49 0
6 -27 -49 0
2 27 50 0
2 -27 -50 0
3 27 55 0
3 -27 -55 0
9 27 56 0
9 -27 -56 0
5 27 57 0
5 -27 -57 0
5 27 58 0
5 -27 -58 0
9 27 60 0
9 -27 -60 0
5 28 30 0
5 -28 -30 0
3 28 45 0
3 -28 -45 0
2 28 51 0
2 -28 -51 0
7 28 57 0
7 -28 -57 0
8 29 37 0
8 -29 -37 0
2 29 54 0
2 -29 -54 0
7 30 47 0
7 -30 -47 0
5 30 53 0
5 -30 -53 0
9 30 55 0
9 -30 -55 0
8 30 59 0
8 -30 -59 0
2 31 35 0
2 -31 -35 0
3 31 38 0
3 -31 -38 0
5 31 40 0
5 -31 -40 0
2 31 53 0
2 -31 -53 0
2 31 54 0
2 -31 -54 0
4 31 55 0
4 -31 -55 0
4 31 60 0
4 -31 -60 0
10 32 35 0
10 -32 -35 0
10 32 36 0
10 -32 -36 0
7 32 40 0
7 -32 -40 0
9 32 45 0
9 -32 -45 0
9 32 48 0
9 -32 -48 0
5 32 49 0
5 -32 -49 0
4 32 51 0
4 -32 -51 0
4 32 52 0
4 -32 -52 0
7 32 55 0
7 -32 -55 0
7 33 38 0
7 -33 -38 0
3 33 39 0
3 -33 -39 0
2 33 42 0
2 -33 -42 0
1 33 55 0
1 -33 -55 0
2 33 56 0
2 -33 -56 0
7 34 35 0
7 -34 -35 0
4 34 37 0
4 -34 -37 0
3 34 41 0
3 -34 -41 0
4 34 44 0
4 -34 -44 0
1 35 36 0
1 -35 -36 0
5 35 39 0
5 -35 -39 0
10 35 42 0
10 -35 -42 0
6 35 43 0
6 -35 -43 0
3 35 44 0
3 -35 -44 0
7 35 45 0
7 -35 -45 0
8 35 46 0
8 -35 -46 0
5 35 52 0
5 -35 -52 0
2 35 53 0
2 -35 -53 0
9 35 56 0
9 -35 -56 0
7 36 41 0
7 -36 -41 0
6 36 43 0
6 -36 -43 0
3 36 49 0
3 -36 -49 0
6 36 52 0
6 -36 -52 0
5 36 57 0
5 -36 -57 0
9 36 58 0
9 -36 -58 0
4 36 59 0
4 -36 -59 0
3 37 45 0
3 -37 -45 0
4 37 46 0
4 -37 -46 0
8 37 50 0
8 -37 -50 0
7 37 55 0
7 -37 -55 0
10 37 58 0
10 -37 -58 0
4 38 46 0
4 -38 -46 0
9 38 48 0
9 -38 -48 0
2 38 55 0
2 -38 -55 0
5 38 57 0
5 -38 -57 0
1 39 41 0
1 -39 -41 0
8 39 42 0
8 -39 -42 0
8 39 44 0
8 -39 -44 0
3 39 45 0
3 -39 -45 0
2 39 46 0
2 -39 -46 0
9 39 51 0
9 -39 -51 0
8 40 43 0
8 -40 -43 0
1 40 45 0
1 -40 -45 0
5 41 42 0
5 -41 -42 0
10 41 50 0
10 -41 -50 0
8 41 54 0
8 -41 -54 0
3 41 55 0
3 -41 -55 0
5 41 57 0
5 -41 -57 0
9 42 54 0
9 -42 -54 0
1 42 58 0
1 -42 -58 0
1 42 60 0
1 -42 -60 0
4 43 47 0
4 -43 -47 0
4 43 49 0
4 -43 -49 0
7 44 48 0
7 -44 -48 0
9 44 51 0
9 -44 -51 0
2 44 52 0
2 -44 -52 0
1 44 55 0
1 -44 -55 0
1 44 58 0
1 -44 -58 0
5 45 56 0
5 -45 -56 0
8 46 51 0
8 -46 -51 0
7 46 52 0
7 -46 -52 0
5 47 48 0
5 -47 -48 0
2 47 52 0
2 -47 -52 0
6 47 54 0
6 -47 -54 0
6 48 55 0
6 -48 -55 0
6 48 56 0
6 -48 -56 0
6 48 59 0
6 -48 -59 0
4 48 60 0
4 -48 -60 0
4 49 50 0
4 -49 -50 0
9 49 58 0
9 -49 -58 0
5 50 53 0
5 -50 -53 0
2 50 54 0
2 -50 -54 0
7 51 53 0
7 -51 -53 0
6 51 57 0
6 -51 -57 0
7 51 58 0
7 -51 -58 0
6 52 56 0
6 -52 -56 0
3 53 57 0
3 -53 -57 0
9 54 55 0
9 -54 -55 0
1 54 59 0
1 -54 -59 0
1 55 58 0
1 -55 -58 0
10 57 59 0
10 -57 -59 0
2 59 60 0
2 -59 -60 0
